55
1 2916 817
2 355 185
3 1632 1493
4 2192 738
5 2164 1637
6 913 1873
7 932 2784
8 803 1180
9 580 389
10 997 490
11 929 2332
12 1713 2323
13 2431 2840
14 1912 1393
15 213 2823
16 2851 456
17 382 2661
18 807 1114
19 2801 2149
20 337 1863
21 2731 2410
22 1570 363
23 115 1085
24 724 1311
25 127 536
26 286 1516
27 1821 306
28 1813 1542
29 996 940
30 860 54
31 2692 2420
32 1780 178
33 1379 783
34 1503 1769
35 410 1245
36 418 337
37 855 2703
38 1945 2556
39 388 1268
40 992 643
41 1104 205
42 415 1121
43 1157 581
44 2365 1579
45 1650 2445
46 737 1030
47 2753 63
48 2124 2073
49 2915 2275
50 933 1691
51 972 820
52 2274 2769
53 86 2526
54 180 616
55 1325 1518
